proyfinal/src/viki/013/andrea/andrea-localstore/experimentInOfficeAgust.take6/worker_11/d7698bbb-4585-422f-98b1-ee6fe284cac1.als.cnf.out
Reading from standard input... Use '--help' for help.
============================[ Problem Statistics ]=============================
|                                                                             |
|  Number of variables:         87638                                         |
|  Number of clauses:          161767                                         |
|  Parse time:                   0.04 s                                       |
|                                                                             |
============================[ Search Statistics ]==============================
| Conflicts |          ORIGINAL         |          LEARNT          | Progress |
|           |    Vars  Clauses Literals |    Limit  Clauses Lit/Cl |          |
===============================================================================
|       100 |   61975   103753   259192 |    38042      100     34 | 29.283 % |
|       250 |   61975   103753   259192 |    41847      250     87 | 29.283 % |
|       475 |   61975   103753   259192 |    46031      475     56 | 29.283 % |
|       812 |   61975   103753   259192 |    50634      812     58 | 29.283 % |
|      1318 |   61975   103753   259192 |    55698     1318     74 | 29.283 % |
|      2077 |   48050   103709   259102 |    61268     2072     70 | 45.172 % |
|      3216 |   47269    61740   156339 |    67395     2526     61 | 46.063 % |
|      4924 |   46899    59972   152135 |    74134     3753     50 | 46.486 % |
|      7486 |   46779    59463   150857 |    81548     6308     46 | 46.622 % |
===============================================================================
restarts              : 31
conflicts             : 7600           (8267 /sec)
decisions             : 25179          (0.00 % random) (27389 /sec)
propagations          : 11020148       (11987569 /sec)
conflict literals     : 382201         (42.44 % deleted)
Memory used           : 29.13 MB
CPU time              : 0.919298 s

UNSATISFIABLE
